n_res = 5;
rcap = [12, 9, 9, 44, 50];
rtype = [1, 1, 1, 2, 2];
n_tasks = 16;
modes = [ {1, 2, 3}, {4, 5, 6}, {7, 8, 9}, {10, 11, 12}, {13, 14, 15}, {16, 17, 18}, {19, 20, 21}, {22, 23, 24}, {25, 26, 27}, {28, 29, 30}, {31, 32, 33}, {34, 35, 36}, {37, 38, 39}, {40, 41, 42}, {43, 44, 45}, {46, 47, 48} ];
succ = [ {4, 9, 14}, {8, 13, 14}, {4, 5, 6}, {7, 10, 13}, {7, 8, 9}, {15}, {16}, {11, 12, 16}, {10, 11, 13}, {12}, {15}, {15}, {16}, {}, {}, {} ];
n_opt = 48;
dur = [2, 7, 7, 2, 4, 10, 3, 5, 10, 2, 4, 9, 1, 2, 8, 3, 4, 10, 5, 7, 10, 2, 3, 3, 5, 5, 9, 3, 6, 8, 1, 1, 7, 1, 4, 6, 1, 6, 6, 3, 6, 9, 7, 7, 8, 1, 6, 9];
rreq = [|  9,  8,  0,  0,  7,  2,  9,  6,  4,  0,  0,  0,  8,  6,  0,  8,  0,  7,  8,  0,  3,  6,  4,  4,  7,  0,  0,  0,  7,  4,  0,  8,  6,  5,  4,  2,  8,  0,  7,  5,  0,  0,  0,  0,  8,  0,  0,  0
        |  6,  3,  5,  0,  0,  0,  9,  0,  0,  6,  5,  0,  0,  0,  0,  8,  8,  0,  8,  0,  8,  0,  4,  5,  0,  7,  5,  0,  0,  0,  7,  8,  0,  0,  8,  0,  7,  0,  0,  0,  0,  0,  0,  8,  0,  0,  0,  0
        |  5,  0,  0,  8,  8,  0,  0,  5,  4,  0,  0,  2,  4,  3,  2,  0,  0,  3,  6,  6,  0,  0,  0,  3,  0,  8,  6,  5,  0,  0,  4,  0,  4,  0,  0,  8,  0,  2,  0,  0,  9,  7,  4,  0,  0,  5,  4,  4
        |  5,  5,  5,  0, 10,  0,  8,  5,  1,  8,  0,  6,  0,  0,  5,  1,  0,  0,  6,  0,  4,  0,  0,  4,  0,  5,  0,  0,  3,  0,  0,  0,  0,  0,  4,  0,  6,  0,  0,  0,  5,  2,  0,  5,  0,  7,  0,  0
        |  0,  0,  0,  8,  0,  8,  0,  0,  0,  0,  8,  0,  6,  4,  0,  0,  7,  7,  0,  7,  0,  7,  6,  0,  7,  0,  7,  4,  0,  3,  8,  6,  6,  8,  0,  6,  0,  7,  7,  6,  0,  0,  7,  0,  5,  0,  4,  2 |];
